<number of tasks>
45

<cycle time>
79

<task times>
1 9
2 9
3 10
4 10
5 17
6 17
7 13
8 13
9 20
10 20
11 10
12 11
13 6
14 22
15 11
16 19
17 12
18 3
19 7
20 4
21 55
22 14
23 27
24 29
25 26
26 6
27 5
28 24
29 4
30 5
31 7
32 4
33 15
34 3
35 7
36 9
37 4
38 7
39 5
40 4
41 21
42 12
43 6
44 5
45 5

<precedence relations>
1,3
1,7
2,4
2,8
3,5
4,6
5,9
6,10
7,9
7,14
8,10
8,14
9,41
10,41
11,13
12,13
12,37
13,14
13,15
14,17
14,25
14,29
14,30
14,31
14,32
15,16
15,18
15,23
15,24
16,19
17,26
17,27
18,19
19,20
19,33
20,21
21,22
22,28
23,33
24,33
25,26
26,38
27,28
27,33
28,38
29,41
30,41
31,41
32,41
33,34
33,35
33,36
34,38
35,40
36,38
37,43
38,40
39,41
40,41
41,42
42,44
42,45

<setup times forward>
1,4:2
1,6:1
1,8:3
1,10:2
1,16:3
1,18:3
1,19:1
1,20:1
1,21:1
1,22:2
1,23:1
1,24:2
1,37:2
1,39:3
1,43:2
2,4:2
2,5:3
2,8:3
2,9:1
2,16:3
2,18:3
2,19:1
2,20:1
2,21:1
2,22:2
2,23:1
2,24:2
2,37:2
2,39:3
2,43:2
3,4:2
3,5:3
3,6:1
3,8:3
3,10:2
3,14:3
3,16:3
3,17:1
3,18:3
3,19:1
3,20:1
3,21:1
3,22:2
3,23:1
3,24:2
3,25:2
3,26:2
3,27:2
3,29:1
3,30:1
3,31:1
3,32:2
3,33:2
3,34:2
3,35:2
3,36:2
3,37:2
3,39:3
3,43:2
4,1:2
4,3:2
4,5:5
4,6:3
4,7:2
4,8:5
4,9:3
4,11:2
4,12:2
4,13:2
4,14:5
4,15:2
4,16:5
4,17:3
4,18:5
4,19:3
4,20:3
4,21:3
4,23:3
4,28:2
4,29:3
4,30:3
4,31:3
4,38:2
4,39:5
4,40:2
5,2:3
5,4:5
5,6:2
5,7:3
5,9:2
5,10:5
5,11:3
5,12:3
5,13:3
5,15:3
5,17:2
5,19:2
5,20:2
5,21:2
5,22:5
5,23:2
5,24:5
5,25:5
5,26:5
5,27:5
5,28:3
5,29:2
5,30:2
5,31:2
5,32:5
5,33:5
5,34:5
5,35:5
5,36:5
5,37:5
5,38:3
5,40:3
5,43:5
6,1:1
6,3:1
6,5:2
6,7:1
6,8:2
6,10:3
6,11:1
6,12:1
6,13:1
6,14:2
6,15:1
6,16:2
6,18:2
6,22:3
6,24:3
6,25:3
6,26:3
6,27:3
6,28:1
6,32:3
6,33:3
6,34:3
6,35:3
6,36:3
6,37:3
6,38:1
6,39:2
6,40:1
6,43:3
7,4:2
7,5:3
7,6:1
7,8:3
7,9:1
7,10:2
7,14:3
7,16:3
7,18:3
7,19:1
7,20:1
7,21:1
7,22:2
7,23:1
7,24:2
7,37:2
7,39:3
7,43:2
8,1:3
8,3:3
8,4:5
8,6:2
8,7:3
8,9:2
8,10:5
8,11:3
8,12:3
8,13:3
8,15:3
8,19:2
8,20:2
8,21:2
8,22:5
8,23:2
8,24:5
8,37:5
8,43:5
9,2:1
9,4:3
9,8:2
9,10:3
9,11:1
9,12:1
9,13:1
9,14:2
9,15:1
9,16:2
9,18:2
9,22:3
9,24:3
9,25:3
9,26:3
9,27:3
9,28:1
9,32:3
9,33:3
9,34:3
9,35:3
9,36:3
9,37:3
9,38:1
9,39:2
9,40:1
9,41:1
9,43:3
10,1:2
10,3:2
10,5:5
10,7:2
10,9:3
10,11:2
10,12:2
10,13:2
10,14:5
10,15:2
10,16:5
10,17:3
10,18:5
10,19:3
10,20:3
10,21:3
10,23:3
10,28:2
10,29:3
10,30:3
10,31:3
10,38:2
10,39:5
10,40:2
10,41:2
11,4:2
11,5:3
11,6:1
11,8:3
11,9:1
11,10:2
11,37:2
11,39:3
11,43:2
12,4:2
12,5:3
12,6:1
12,8:3
12,9:1
12,10:2
12,37:2
12,39:3
13,4:2
13,5:3
13,6:1
13,8:3
13,9:1
13,10:2
13,14:3
13,37:2
13,39:3
13,43:2
14,3:3
14,4:5
14,6:2
14,9:2
14,10:5
14,15:3
14,17:2
14,19:2
14,20:2
14,21:2
14,22:5
14,23:2
14,24:5
14,25:5
14,29:2
14,30:2
14,31:2
14,32:5
14,37:5
14,43:5
15,4:2
15,5:3
15,6:1
15,8:3
15,9:1
15,10:2
15,14:3
15,16:3
15,17:1
15,18:3
15,23:1
15,24:2
15,25:2
15,26:2
15,27:2
15,29:1
15,30:1
15,31:1
15,32:2
15,37:2
15,39:3
15,43:2
16,1:3
16,2:3
16,3:3
16,4:5
16,6:2
16,7:3
16,9:2
16,10:5
16,17:2
16,19:2
16,23:2
16,24:5
16,25:5
16,26:5
16,27:5
16,29:2
16,30:2
16,31:2
16,32:5
16,37:5
16,43:5
17,3:1
17,4:3
17,5:2
17,10:3
17,15:1
17,16:2
17,18:2
17,22:3
17,24:3
17,25:3
17,26:3
17,27:3
17,32:3
17,37:3
17,39:2
17,43:3
18,1:3
18,2:3
18,3:3
18,4:5
18,6:2
18,7:3
18,9:2
18,10:5
18,17:2
18,19:2
18,23:2
18,24:5
18,25:5
18,26:5
18,27:5
18,29:2
18,30:2
18,31:2
18,32:5
18,37:5
18,43:5
19,1:1
19,2:1
19,3:1
19,4:3
19,5:2
19,7:1
19,8:2
19,10:3
19,14:2
19,24:3
19,25:3
19,26:3
19,27:3
19,32:3
19,33:3
19,37:3
19,39:2
19,43:3
20,1:1
20,2:1
20,3:1
20,4:3
20,5:2
20,7:1
20,8:2
20,10:3
20,14:2
20,24:3
20,25:3
20,26:3
20,27:3
20,32:3
20,33:3
20,34:3
20,35:3
20,36:3
20,37:3
20,39:2
20,43:3
21,1:1
21,2:1
21,3:1
21,4:3
21,5:2
21,7:1
21,8:2
21,10:3
21,14:2
21,22:3
21,24:3
21,25:3
21,26:3
21,27:3
21,32:3
21,33:3
21,34:3
21,35:3
21,36:3
21,37:3
21,39:2
21,43:3
22,1:2
22,2:2
22,3:2
22,5:5
22,6:3
22,7:2
22,8:5
22,9:3
22,14:5
22,17:3
22,23:3
22,28:2
22,29:3
22,30:3
22,31:3
22,39:5
23,1:1
23,2:1
23,3:1
23,4:3
23,5:2
23,7:1
23,8:2
23,10:3
23,14:2
23,16:2
23,18:2
23,22:3
23,24:3
23,25:3
23,26:3
23,27:3
23,28:1
23,32:3
23,33:3
23,37:3
23,39:2
23,43:3
24,1:2
24,2:2
24,3:2
24,5:5
24,6:3
24,7:2
24,8:5
24,9:3
24,14:5
24,16:5
24,17:3
24,18:5
24,19:3
24,20:3
24,21:3
24,23:3
24,28:2
24,29:3
24,30:3
24,31:3
24,39:5
25,3:2
25,5:5
25,6:3
25,9:3
25,15:2
25,16:5
25,17:3
25,18:5
25,19:3
25,20:3
25,21:3
25,23:3
25,28:2
25,29:3
25,30:3
25,31:3
25,39:5
26,3:2
26,5:5
26,6:3
26,9:3
26,15:2
26,16:5
26,18:5
26,19:3
26,20:3
26,21:3
26,23:3
26,28:2
26,29:3
26,30:3
26,31:3
26,38:2
26,39:5
27,3:2
27,5:5
27,6:3
27,9:3
27,15:2
27,16:5
27,18:5
27,19:3
27,20:3
27,21:3
27,23:3
27,28:2
27,29:3
27,30:3
27,31:3
27,39:5
28,4:2
28,5:3
28,6:1
28,9:1
28,10:2
28,23:1
28,24:2
28,25:2
28,26:2
28,29:1
28,30:1
28,31:1
28,32:2
28,33:2
28,34:2
28,35:2
28,36:2
28,37:2
28,39:3
28,43:2
29,3:1
29,4:3
29,5:2
29,10:3
29,15:1
29,16:2
29,18:2
29,22:3
29,24:3
29,25:3
29,26:3
29,27:3
29,28:1
29,32:3
29,33:3
29,34:3
29,35:3
29,36:3
29,37:3
29,38:1
29,39:2
29,40:1
29,41:1
29,43:3
30,3:1
30,4:3
30,5:2
30,10:3
30,15:1
30,16:2
30,18:2
30,22:3
30,24:3
30,25:3
30,26:3
30,27:3
30,28:1
30,32:3
30,33:3
30,34:3
30,35:3
30,36:3
30,37:3
30,38:1
30,39:2
30,40:1
30,41:1
30,43:3
31,3:1
31,4:3
31,5:2
31,10:3
31,15:1
31,16:2
31,18:2
31,22:3
31,24:3
31,25:3
31,26:3
31,27:3
31,28:1
31,32:3
31,33:3
31,34:3
31,35:3
31,36:3
31,37:3
31,38:1
31,39:2
31,40:1
31,41:1
31,43:3
32,3:2
32,5:5
32,6:3
32,9:3
32,15:2
32,16:5
32,17:3
32,18:5
32,19:3
32,20:3
32,21:3
32,23:3
32,28:2
32,29:3
32,30:3
32,31:3
32,38:2
32,39:5
32,40:2
32,41:2
33,3:2
33,5:5
33,6:3
33,9:3
33,20:3
33,21:3
33,28:2
33,29:3
33,30:3
33,31:3
33,39:5
34,3:2
34,5:5
34,6:3
34,9:3
34,20:3
34,21:3
34,28:2
34,29:3
34,30:3
34,31:3
34,38:2
34,39:5
35,3:2
35,5:5
35,6:3
35,9:3
35,20:3
35,21:3
35,28:2
35,29:3
35,30:3
35,31:3
35,38:2
35,39:5
35,40:2
36,3:2
36,5:5
36,6:3
36,9:3
36,20:3
36,21:3
36,28:2
36,29:3
36,30:3
36,31:3
36,38:2
36,39:5
37,1:2
37,2:2
37,3:2
37,5:5
37,6:3
37,7:2
37,8:5
37,9:3
37,11:2
37,13:2
37,14:5
37,15:2
37,16:5
37,17:3
37,18:5
37,19:3
37,20:3
37,21:3
37,23:3
37,28:2
37,29:3
37,30:3
37,31:3
37,38:2
37,39:5
37,40:2
37,41:2
37,42:2
37,44:2
37,45:2
38,4:2
38,5:3
38,6:1
38,9:1
38,10:2
38,29:1
38,30:1
38,31:1
38,32:2
38,35:2
38,37:2
38,39:3
38,43:2
39,1:3
39,2:3
39,3:3
39,4:5
39,6:2
39,7:3
39,9:2
39,10:5
39,11:3
39,12:3
39,13:3
39,15:3
39,17:2
39,19:2
39,20:2
39,21:2
39,22:5
39,23:2
39,24:5
39,25:5
39,26:5
39,27:5
39,28:3
39,29:2
39,30:2
39,31:2
39,32:5
39,33:5
39,34:5
39,35:5
39,36:5
39,37:5
39,38:3
39,40:3
39,41:3
39,43:5
40,4:2
40,5:3
40,6:1
40,9:1
40,10:2
40,29:1
40,30:1
40,31:1
40,32:2
40,37:2
40,39:3
40,43:2
41,37:2
41,43:2
42,37:2
42,43:2
43,1:2
43,2:2
43,3:2
43,5:5
43,6:3
43,7:2
43,8:5
43,9:3
43,11:2
43,13:2
43,14:5
43,15:2
43,16:5
43,17:3
43,18:5
43,19:3
43,20:3
43,21:3
43,23:3
43,28:2
43,29:3
43,30:3
43,31:3
43,38:2
43,39:5
43,40:2
43,41:2
43,42:2
43,44:2
43,45:2
44,37:2
44,43:2
45,37:2
45,43:2

<setup times backward>
1,4:2
1,10:2
1,22:2
1,24:2
1,37:2
1,43:2
2,22:2
2,24:2
2,37:2
2,43:2
3,4:2
3,10:2
3,22:2
3,24:2
3,25:2
3,26:2
3,27:2
3,32:2
3,33:2
3,34:2
3,35:2
3,36:2
3,37:2
3,43:2
5,1:3
5,2:3
5,3:3
5,4:5
5,6:2
5,7:3
5,10:5
5,11:3
5,12:3
5,13:3
5,15:3
5,17:2
5,19:2
5,20:2
5,21:2
5,22:5
5,23:2
5,24:5
5,25:5
5,26:5
5,27:5
5,28:3
5,29:2
5,30:2
5,31:2
5,32:5
5,33:5
5,34:5
5,35:5
5,36:5
5,37:5
5,38:3
5,40:3
5,43:5
6,1:1
6,2:1
6,3:1
6,4:3
6,7:1
6,11:1
6,12:1
6,13:1
6,15:1
6,22:3
6,24:3
6,25:3
6,26:3
6,27:3
6,28:1
6,32:3
6,33:3
6,34:3
6,35:3
6,36:3
6,37:3
6,38:1
6,40:1
6,43:3
7,4:2
7,10:2
7,22:2
7,24:2
7,37:2
7,43:2
8,1:3
8,2:3
8,3:3
8,4:5
8,6:2
8,7:3
8,9:2
8,11:3
8,12:3
8,13:3
8,15:3
8,19:2
8,20:2
8,21:2
8,22:5
8,23:2
8,24:5
8,37:5
8,43:5
9,1:1
9,2:1
9,3:1
9,4:3
9,7:1
9,10:3
9,11:1
9,12:1
9,13:1
9,15:1
9,22:3
9,24:3
9,25:3
9,26:3
9,27:3
9,28:1
9,32:3
9,33:3
9,34:3
9,35:3
9,36:3
9,37:3
9,38:1
9,40:1
9,43:3
11,4:2
11,10:2
11,37:2
11,43:2
12,4:2
12,10:2
13,4:2
13,10:2
13,37:2
13,43:2
14,1:3
14,2:3
14,3:3
14,4:5
14,6:2
14,7:3
14,9:2
14,10:5
14,11:3
14,12:3
14,13:3
14,15:3
14,19:2
14,20:2
14,21:2
14,22:5
14,23:2
14,24:5
14,37:5
14,43:5
15,4:2
15,10:2
15,25:2
15,26:2
15,27:2
15,32:2
15,37:2
15,43:2
16,1:3
16,2:3
16,3:3
16,4:5
16,6:2
16,7:3
16,9:2
16,10:5
16,11:3
16,12:3
16,13:3
16,15:3
16,17:2
16,23:2
16,24:5
16,25:5
16,26:5
16,27:5
16,29:2
16,30:2
16,31:2
16,32:5
16,37:5
16,43:5
17,1:1
17,2:1
17,3:1
17,4:3
17,7:1
17,10:3
17,11:1
17,12:1
17,13:1
17,15:1
17,22:3
17,24:3
17,25:3
17,32:3
17,37:3
17,43:3
18,1:3
18,2:3
18,3:3
18,4:5
18,6:2
18,7:3
18,9:2
18,10:5
18,11:3
18,12:3
18,13:3
18,15:3
18,17:2
18,23:2
18,24:5
18,25:5
18,26:5
18,27:5
18,29:2
18,30:2
18,31:2
18,32:5
18,37:5
18,43:5
19,1:1
19,2:1
19,3:1
19,4:3
19,7:1
19,10:3
19,11:1
19,12:1
19,13:1
19,15:1
19,24:3
19,25:3
19,26:3
19,27:3
19,32:3
19,37:3
19,43:3
20,1:1
20,2:1
20,3:1
20,4:3
20,7:1
20,10:3
20,11:1
20,12:1
20,13:1
20,15:1
20,24:3
20,25:3
20,26:3
20,27:3
20,32:3
20,33:3
20,34:3
20,35:3
20,36:3
20,37:3
20,43:3
21,1:1
21,2:1
21,3:1
21,4:3
21,7:1
21,10:3
21,11:1
21,12:1
21,13:1
21,15:1
21,24:3
21,25:3
21,26:3
21,27:3
21,32:3
21,33:3
21,34:3
21,35:3
21,36:3
21,37:3
21,43:3
23,1:1
23,2:1
23,3:1
23,4:3
23,7:1
23,10:3
23,11:1
23,12:1
23,13:1
23,15:1
23,22:3
23,24:3
23,25:3
23,26:3
23,27:3
23,28:1
23,32:3
23,37:3
23,43:3
28,4:2
28,10:2
28,22:2
28,24:2
28,25:2
28,26:2
28,27:2
28,32:2
28,33:2
28,34:2
28,35:2
28,36:2
28,37:2
28,43:2
29,1:1
29,2:1
29,3:1
29,4:3
29,7:1
29,10:3
29,11:1
29,12:1
29,13:1
29,15:1
29,22:3
29,24:3
29,25:3
29,26:3
29,27:3
29,28:1
29,32:3
29,33:3
29,34:3
29,35:3
29,36:3
29,37:3
29,38:1
29,40:1
29,43:3
30,1:1
30,2:1
30,3:1
30,4:3
30,7:1
30,10:3
30,11:1
30,12:1
30,13:1
30,15:1
30,22:3
30,24:3
30,25:3
30,26:3
30,27:3
30,28:1
30,32:3
30,33:3
30,34:3
30,35:3
30,36:3
30,37:3
30,38:1
30,40:1
30,43:3
31,1:1
31,2:1
31,3:1
31,4:3
31,7:1
31,10:3
31,11:1
31,12:1
31,13:1
31,15:1
31,22:3
31,24:3
31,25:3
31,26:3
31,27:3
31,28:1
31,32:3
31,33:3
31,34:3
31,35:3
31,36:3
31,37:3
31,38:1
31,40:1
31,43:3
38,4:2
38,10:2
38,22:2
38,24:2
38,25:2
38,26:2
38,27:2
38,32:2
38,33:2
38,34:2
38,35:2
38,36:2
38,37:2
38,43:2
39,1:3
39,2:3
39,3:3
39,4:5
39,6:2
39,7:3
39,9:2
39,10:5
39,11:3
39,12:3
39,13:3
39,15:3
39,17:2
39,19:2
39,20:2
39,21:2
39,22:5
39,23:2
39,24:5
39,25:5
39,26:5
39,27:5
39,28:3
39,29:2
39,30:2
39,31:2
39,32:5
39,33:5
39,34:5
39,35:5
39,36:5
39,37:5
39,38:3
39,40:3
39,43:5
40,4:2
40,10:2
40,22:2
40,24:2
40,25:2
40,26:2
40,27:2
40,32:2
40,33:2
40,34:2
40,35:2
40,36:2
40,37:2
40,43:2
41,4:2
41,10:2
41,22:2
41,24:2
41,25:2
41,26:2
41,27:2
41,32:2
41,33:2
41,34:2
41,35:2
41,36:2
41,37:2
41,43:2
42,4:2
42,10:2
42,22:2
42,24:2
42,25:2
42,26:2
42,27:2
42,32:2
42,33:2
42,34:2
42,35:2
42,36:2
42,37:2
42,43:2
44,4:2
44,10:2
44,22:2
44,24:2
44,25:2
44,26:2
44,27:2
44,32:2
44,33:2
44,34:2
44,35:2
44,36:2
44,37:2
44,43:2
45,4:2
45,10:2
45,22:2
45,24:2
45,25:2
45,26:2
45,27:2
45,32:2
45,33:2
45,34:2
45,35:2
45,36:2
45,37:2
45,43:2

<end>

<optimal SALBP-1 value>
7


<rand seed>
467321153

